Minimize
  - 9 y_0 - 10 y_1 - 9 y_2 - 10 y_3 - 8 y_4 - 10 y_5 - 7 y_6 - 2 y_7
   - 11 y_8 - 9 y_9 - 9 y_10 - 12 y_11 - 6 y_12 - 9 y_13 - 12 y_14 - 5 y_15
   - 7 y_16 - 9 y_17 - 8 y_18 - 4 y_19 - 2 y_20 - 10 y_21 - 7 y_22 - 6 y_23
   - 7 y_24 - 4 y_25 - 7 y_26 - y_27 - 4 y_28 - 8 y_29 - 7 y_30 - 9 y_31
   - 10 y_32 - 8 y_33 - 11 y_34 - 5 y_35 - 10 y_36 - 6 y_37 - 8 y_38
   - 12 y_39 - y_40 - 11 y_41 - 12 y_42 - 9 y_43 - 8 y_44 - 11 y_45
   - 11 y_46 - 9 y_47 - 11 y_48 - 9 y_49 - 9 y_50 - 11 y_51 - 7 y_52
   - 2 y_53 - 6 y_54 - 6 y_55 - 11 y_56 - 8 y_57 - 12 y_58 - 2 y_59
   - 6 y_60 - 8 y_61 - 8 y_62 - 11 y_63 - 12 y_64 - 13 y_65 - 8 y_66
   - 9 y_67 - 5 y_68 - 9 y_69 - 8 y_70 - y_71 - 3 y_72 - 11 y_73 - 11 y_75
   - 4 y_76 - 4 y_77 - 9 y_78 - 14 y_79 - 10 y_80 - 7 y_81 - 9 y_82
   - 9 y_83 - 10 y_84 - 9 y_85 - 6 y_86 - 3 y_87 - 6 y_88 - y_89 - 12 y_90
   - 11 y_91 - 7 y_92 - 6 y_93 - 9 y_94 - 4 y_95 - 9 y_96 - 6 y_97 - 6 y_98
   - 8 y_99 + 776 Constant
Subject To
 c_0: y_22 = 1
 c_1_0: y_0 + y_1 + y_6 + y_84 >= 1
 c_1_1: y_0 + y_1 + y_80 + y_84 >= 1
 c_1_2: y_2 + y_26 + y_43 + y_62 + y_67 + y_81 >= 1
 c_1_3: y_3 + y_66 >= 1
 c_1_4: y_4 + y_22 + y_44 + y_99 >= 1
 c_1_5: y_5 + y_9 + y_41 + y_42 + y_48 >= 1
 c_1_6: y_0 + y_6 >= 1
 c_1_7: y_7 + y_20 + y_27 + y_40 + y_59 + y_89 >= 1
 c_1_8: y_8 >= 1
 c_1_9: y_5 + y_9 + y_57 >= 1
 c_1_10: y_10 + y_69 + y_82 >= 1
 c_1_11: y_11 + y_34 >= 1
 c_1_12: y_12 + y_23 + y_28 + y_77 >= 1
 c_1_13: y_13 + y_47 + y_69 + y_96 >= 1
 c_1_14: y_14 + y_39 + y_58 + y_80 >= 1
 c_1_15: y_15 + y_54 + y_76 >= 1
 c_1_16: y_16 + y_24 + y_52 + y_55 >= 1
 c_1_17: y_17 >= 1
 c_1_18: y_18 + y_29 + y_31 + y_78 >= 1
 c_1_19: y_19 + y_54 + y_88 + y_97 >= 1
 c_1_20: y_7 + y_20 + y_27 >= 1
 c_1_21: y_21 + y_78 >= 1
 c_1_22: y_4 + y_22 + y_26 + y_44 + y_86 + y_93 + y_99 >= 1
 c_1_23: y_12 + y_23 >= 1
 c_1_24: y_16 + y_24 >= 1
 c_1_25: y_25 + y_53 + y_72 + y_95 >= 1
 c_1_26: y_2 + y_22 + y_26 + y_62 + y_67 + y_81 + y_86 + y_93 >= 1
 c_1_27: y_7 + y_20 + y_27 + y_40 + y_74 + y_89 >= 1
 c_1_28: y_12 + y_28 + y_59 + y_77 >= 1
 c_1_29: y_18 + y_29 + y_78 + y_97 >= 1
 c_1_30: y_30 + y_57 + y_66 >= 1
 c_1_31: y_18 + y_31 + y_78 >= 1
 c_1_32: y_32 + y_56 + y_91 >= 1
 c_1_33: y_33 + y_60 + y_66 + y_70 + y_83 >= 1
 c_1_34: y_11 + y_34 >= 1
 c_1_35: y_35 + y_76 >= 1
 c_1_36: y_36 + y_49 >= 1
 c_1_37: y_37 + y_55 + y_68 >= 1
 c_1_38: y_38 + y_43 >= 1
 c_1_39: y_14 + y_39 + y_58 + y_80 >= 1
 c_1_40: y_7 + y_27 + y_40 + y_53 + y_59 + y_71 + y_74 + y_89 >= 1
 c_1_41: y_5 + y_41 + y_42 >= 1
 c_1_42: y_5 + y_41 + y_42 + y_48 >= 1
 c_1_43: y_2 + y_38 + y_43 >= 1
 c_1_44: y_4 + y_22 + y_44 + y_99 >= 1
 c_1_45: y_45 + y_47 + y_51 + y_63 + y_73 >= 1
 c_1_46: y_46 + y_67 >= 1
 c_1_47: y_13 + y_45 + y_47 + y_51 + y_96 >= 1
 c_1_48: y_5 + y_42 + y_48 >= 1
 c_1_49: y_36 + y_49 >= 1
 c_1_50: y_50 + y_61 >= 1
 c_1_51: y_45 + y_47 + y_51 + y_63 >= 1
 c_1_52: y_16 + y_52 + y_55 >= 1
 c_1_53: y_25 + y_40 + y_53 + y_59 + y_71 + y_72 + y_74 + y_89 + y_95 >= 1
 c_1_54: y_15 + y_19 + y_54 + y_88 >= 1
 c_1_55: y_16 + y_37 + y_52 + y_55 >= 1
 c_1_56: y_32 + y_56 + y_91 >= 1
 c_1_57: y_9 + y_30 + y_57 >= 1
 c_1_58: y_14 + y_39 + y_58 + y_80 >= 1
 c_1_59: y_7 + y_28 + y_40 + y_53 + y_59 + y_77 + y_89 >= 1
 c_1_60: y_33 + y_60 >= 1
 c_1_61: y_50 + y_61 >= 1
 c_1_62: y_2 + y_26 + y_62 + y_67 + y_81 + y_86 >= 1
 c_1_63: y_45 + y_51 + y_63 + y_73 >= 1
 c_1_64: y_64 >= 1
 c_1_65: y_65 + y_90 >= 1
 c_1_66: y_3 + y_30 + y_33 + y_66 + y_83 >= 1
 c_1_67: y_2 + y_26 + y_46 + y_62 + y_67 >= 1
 c_1_68: y_37 + y_68 >= 1
 c_1_69: y_10 + y_13 + y_69 + y_82 + y_96 >= 1
 c_1_70: y_33 + y_70 + y_94 >= 1
 c_1_71: y_40 + y_53 + y_71 + y_74 + y_87 + y_89 >= 1
 c_1_72: y_25 + y_53 + y_72 + y_95 >= 1
 c_1_73: y_45 + y_63 + y_73 >= 1
 c_1_74: y_27 + y_40 + y_53 + y_71 + y_74 + y_89 >= 1
 c_1_75: y_75 + y_90 >= 1
 c_1_76: y_15 + y_35 + y_76 >= 1
 c_1_77: y_12 + y_28 + y_59 + y_77 >= 1
 c_1_78: y_18 + y_21 + y_29 + y_31 + y_78 >= 1
 c_1_79: y_79 >= 1
 c_1_80: y_1 + y_14 + y_39 + y_58 + y_80 >= 1
 c_1_81: y_2 + y_26 + y_62 + y_81 + y_86 + y_93 >= 1
 c_1_82: y_10 + y_69 + y_82 + y_96 >= 1
 c_1_83: y_33 + y_66 + y_83 >= 1
 c_1_84: y_0 + y_1 + y_84 >= 1
 c_1_85: y_85 + y_92 >= 1
 c_1_86: y_22 + y_26 + y_62 + y_81 + y_86 + y_93 >= 1
 c_1_87: y_71 + y_87 >= 1
 c_1_88: y_19 + y_54 + y_88 + y_97 >= 1
 c_1_89: y_7 + y_27 + y_40 + y_53 + y_59 + y_71 + y_74 + y_89 >= 1
 c_1_90: y_65 + y_75 + y_90 >= 1
 c_1_91: y_32 + y_56 + y_91 >= 1
 c_1_92: y_85 + y_92 >= 1
 c_1_93: y_22 + y_26 + y_81 + y_86 + y_93 >= 1
 c_1_94: y_70 + y_94 >= 1
 c_1_95: y_25 + y_53 + y_72 + y_95 >= 1
 c_1_96: y_13 + y_47 + y_69 + y_82 + y_96 >= 1
 c_1_97: y_19 + y_29 + y_88 + y_97 >= 1
 c_1_98: y_98 >= 1
 c_1_99: y_4 + y_22 + y_44 + y_99 >= 1
Bounds
 Constant = 1
Binaries
 y_0 y_1 y_2 y_3 y_4 y_5 y_6 y_7 y_8 y_9 y_10 y_11 y_12 y_13 y_14 y_15 y_16
 y_17 y_18 y_19 y_20 y_21 y_22 y_23 y_24 y_25 y_26 y_27 y_28 y_29 y_30 y_31
 y_32 y_33 y_34 y_35 y_36 y_37 y_38 y_39 y_40 y_41 y_42 y_43 y_44 y_45 y_46
 y_47 y_48 y_49 y_50 y_51 y_52 y_53 y_54 y_55 y_56 y_57 y_58 y_59 y_60 y_61
 y_62 y_63 y_64 y_65 y_66 y_67 y_68 y_69 y_70 y_71 y_72 y_73 y_74 y_75 y_76
 y_77 y_78 y_79 y_80 y_81 y_82 y_83 y_84 y_85 y_86 y_87 y_88 y_89 y_90 y_91
 y_92 y_93 y_94 y_95 y_96 y_97 y_98 y_99
End
